objective value:                                    0
lambda[1,17]*                                       5 	(obj:0)
lambda[0,19]*                                       4 	(obj:0)
lambda[0,24]*                                       2 	(obj:0)
lambda[1,24]*                                       3 	(obj:0)
lambda[0,25]*                                       4 	(obj:0)
